[VALIDATOR STDOUT]
Checking plan: /home/jfan5/Safety-gen/runs/benchmark/optic/delivery_20260129_163024/delivery/optic_results/delivery_size48_packages1_seed48001.plan
Plan executed successfully - checking goal
Plan valid
Final value: 181 

Successful plans:
Value: 181
 /home/jfan5/Safety-gen/runs/benchmark/optic/delivery_20260129_163024/delivery/optic_results/delivery_size48_packages1_seed48001.plan 181
